data/benchmarks/bayes/75-14-9-q.cnf
p cnf 924 975
c weights 0.816315 0.183685 1 1 1 1 1 1 1 1 1 1 1 1 1 1 1 1 1 1 1 1 1 1 1 1 1 1 1 1 1 1 1 1 1 1 1 1 1 1 1 1 1 1 1 1 1 1 1 1 1 1 1 1 1 1 1 1 1 1 1 1 1 1 1 1 1 1 1 1 1 1 1 1 1 1 1 1 1 1 1 1 1 1 1 1 1 1 1 1 1 1 1 1 1 1 1 1 1 1 1 1 1 1 1 1 1 1 1 1 1 1 1 1 1 1 1 1 1 1 1 1 1 1 1 1 1 1 1 1 1 1 1 1 1 1 1 1 1 1 1 1 1 1 1 1 1 1 1 1 1 1 1 1 1 1 1 1 1 1 1 1 1 1 1 1 1 1 1 1 1 1 1 1 1 1 1 1 1 1 1 1 1 1 1 1 1 1 1 1 1 1 1 1 1 1 1 1 1 1 1 1 1 1 1 1 1 1 1 1 1 1 1 1 1 1 1 1 1 1 1 1 1 1 1 1 1 1 1 1 1 1 1 1 1 1 1 1 1 1 1 1 1 1 1 1 1 1 1 1 1 1 1 1 1 1 1 1 1 1 1 1 1 1 1 1 1 1 1 1 1 1 1 1 1 1 1 1 1 1 1 1 1 1 1 1 1 1 1 1 1 1 1 1 1 1 1 1 1 1 1 1 1 1 1 1 1 1 1 1 1 1 1 1 1 1 1 1 1 1 1 1 1 1 1 1 1 1 1 1 1 1 1 1 1 1 1 1 1 1 1 1 1 1 1 1 1 1 1 1 1 1 1 1 1 1 1 1 1 1 1 1 1 1 1 1 1 1 1 1 1 1 1 1 1 1 1 1 1 1 1 1 1 1 1 1 1 1 1 1 1 1 0.5 0.5 0.5 0.5 0.5 0.5 0.5 0.5 0.504672 0.495328 0.832471 0.16752900000000004 0.703349 0.296651 0.69504 0.30496 0.5 0.5 0.5 0.5 0.5 0.5 0.5 0.5 0.5 0.5 0.5 0.5 0.5 0.5 0.5 0.5 0.148525 0.851475 0.0507235 0.9492765 0.5 0.5 0.5 0.5 0.401892 0.598108 0.76921 0.23079000000000005 0.5 0.5 0.5 0.5 0.5 0.5 0.5 0.5 0.0442141 0.9557859 0.0781448 0.9218552 0.373033 0.626967 0.893362 0.10663800000000001 0.386815 0.613185 0.205505 0.794495 0.5 0.5 0.5 0.5 0.5 0.5 0.5 0.5 0.5 0.5 0.5 0.5 0.5 0.5 0.5 0.5 0.5 0.5 0.5 0.5 0.5 0.5 0.5 0.5 0.5 0.5 0.5 0.5 0.5 0.5 0.5 0.5 0.5 0.5 0.5 0.5 0.5 0.5 0.5 0.5 0.97885 0.021150000000000002 0.422348 0.577652 0.83965 0.16035 0.365665 0.634335 0.5 0.5 0.5 0.5 0.5 0.5 0.5 0.5 0.5 0.5 0.5 0.5 0.5 0.5 0.5 0.5 0.5 0.5 0.5 0.5 0.5 0.5 0.5 0.5 0.186634 0.813366 0.833916 0.166084 0.146822 0.853178 0.438184 0.561816 0.0149659 0.9850341 0.534891 0.465109 0.888331 0.11166900000000002 0.961254 0.03874599999999995 0.5 0.5 0.5 0.5 0.5 0.5 0.5 0.5 0.5 0.5 0.5 0.5 0.5 0.5 0.5 0.5 0.5 0.5 0.5 0.5 0.5 0.5 0.5 0.5 0.5 0.5 0.5 0.5 0.18335 0.81665 0.484331 0.5156689999999999 0.742322 0.25767799999999996 0.369984 0.630016 0.5 0.5 0.5 0.5 0.5 0.5 0.5 0.5 0.5 0.5 0.5 0.5 0.5 0.5 0.5 0.5 0.5 0.5 0.5 0.5 0.5 0.5 0.5 0.5 0.315988 0.6840120000000001 0.649684 0.35031599999999996 0.868498 0.131502 0.320046 0.679954 0.5 0.5 0.5 0.5 0.5 0.5 0.5 0.5 0.5 0.5 0.5 0.5 0.5 0.5 0.5 0.5 0.5 0.5 0.5 0.5 0.5 0.5 0.5 0.5 0.5 0.5 0.5 0.5 0.5 0.5 0.5 0.5 0.55336 0.44664000000000004 0.461812 0.538188 0.212862 0.787138 0.574345 0.425655 0.5 0.5 0.5 0.5 0.5 0.5 0.5 0.5 0.5 0.5 0.5 0.5 0.731661 0.268339 0.1716 0.8284 0.95215 0.04784999999999995 0.288009 0.711991 0.5 0.5 0.5 0.5 0.5 0.5 0.5 0.5 0.5 0.5 0.5 0.5 0.5 0.5 0.5 0.5 0.5 0.5 0.5 0.5 0.5 0.5 0.5 0.5 0.5 0.5 0.5 0.5 0.5 0.5 0.5 0.5 0.930686 0.06931399999999999 0.315475 0.684525 0.714194 0.285806 0.141065 0.858935 0.502102 0.49789799999999995 0.872726 0.127274 0.974665 0.025334999999999996 0.454252 0.545748 0.5 0.5 0.5 0.5 0.5 0.5 0.5 0.5 0.177037 0.822963 0.522465 0.47753500000000004 0.314375 0.6856249999999999 0.380841 0.619159 0.5 0.5 0.5 0.5 0.5 0.5 0.5 0.5 0.463002 0.536998 0.726588 0.273412 0.967036 0.03296399999999999 0.595541 0.404459 0.5 0.5 0.5 0.5 0.5 0.5 0.5 0.5 0.5 0.5 0.5 0.5 0.5 0.5 0.5 0.5 0.5 0.5 0.5 0.5 0.5 0.5 0.5 0.5 0.5 0.5 0.5 0.5 0.5 0.5 0.5 0.5 0.5 0.5 0.5 0.5 0.5 0.5 0.5 0.5 0.5 0.5 0.5 0.5 0.5 0.5 0.5 0.5 0.5 0.5 0.5 0.5 0.5 0.5 0.5 0.5 0.5 0.5 0.5 0.5 0.5 0.5 0.5 0.5 0.5 0.5 0.5 0.5 0.5 0.5 0.5 0.5 0.5 0.5 0.5 0.5 0.5 0.5 0.5 0.5 0.5 0.5 0.5 0.5 0.5 0.5 0.5 0.5 0.5 0.5 0.5 0.5 0.5 0.5 0.5 0.5 0.5 0.5 0.5 0.5 0.5 0.5 0.5 0.5 0.5 0.5 0.5 0.5 0.5 0.5 0.5 0.5 0.5 0.5 0.5 0.5 0.5 0.5 0.5 0.5 0.5 0.5 0.5 0.5 0.330161 0.6698390000000001 0.522825 0.477175 0.5 0.5 0.5 0.5 0.5 0.5 0.5 0.5 0.350302 0.649698 0.772783 0.227217 0.0736345 0.9263655 0.781369 0.21863100000000002 0.5 0.5 0.5 0.5 0.5 0.5 0.5 0.5 0.714334 0.285666 0.910659 0.089341 0.0602315 0.9397685 0.202653 0.797347 0.366942 0.633058 0.505419 0.49458100000000005 0.922175 0.07782500000000003 0.0650779 0.9349221 0.5 0.5 0.5 0.5 0.5 0.5 0.5 0.5 0.0322069 0.9677931 0.543834 0.45616599999999996 0.00245919 0.9975408100000001 0.838084 0.16191599999999995 0.5 0.5 0.5 0.5 0.5 0.5 0.5 0.5 0.5 0.5 0.5 0.5 0.5 0.5 0.5 0.5 0.659759 0.340241 0.0501339 0.9498661 0.987006 0.01299399999999995 0.862412 0.13758800000000004 0.353949 0.6460509999999999 0.367831 0.632169 0.796255 0.20374499999999995 0.419026 0.580974 0.5 0.5 0.5 0.5 0.5 0.5 0.5 0.5 0.349568 0.650432 0.692656 0.30734399999999995 0.474545 0.525455 0.352027 0.647973 0.5 0.5 0.5 0.5 0.5 0.5 0.5 0.5 0.5 0.5 0.5 0.5 0.5 0.5 0.5 0.5 0.5 0.5 0.5 0.5 0.657444 0.34255599999999997 0.855689 0.14431099999999997 0.782405 0.21759499999999998 0.531524 0.468476 0.5 0.5 0.5 0.5 0.5 0.5 0.5 0.5 0.0421206 0.9578794 0.590157 0.40984299999999996 0.551499 0.44850100000000004 0.972831 0.027169 0.244155 0.755845 0.447376 0.552624 0.291752 0.708248 0.774895 0.225105 0.5 0.5 0.5 0.5 0.5 0.5 0.5 0.5 0.5 0.5 0.5 0.5 0.5 0.5 0.5 0.5 0.5 0.5 0.5 0.5 0.5 0.5 0.5 0.5 0.5 0.5 0.5 0.5 0.5 0.5 0.5 0.5 0.5 0.5 0.5 0.5 0.5 0.5 0.5 0.5 0.5 0.5 0.5 0.5 0.5 0.5 0.5 0.5 0.169416 0.830584 0.325285 0.674715 0.775462 0.22453800000000002 0.974884 0.025116000000000027 0.5 0.5 0.5 0.5 0.5 0.5 0.5 0.5 0.5 0.5 0.5 0.5 0.666857 0.33314299999999997 0.0859112 0.9140888 0.103794 0.8962060000000001 0.736438 0.26356199999999996 0.447973 0.552027 0.133797 0.8662030000000001 0.137337 0.862663 0.955082 0.044918000000000013 0.5 0.5 0.5 0.5 0.5 0.5 0.5 0.5 0.5 0.5 0.5 0.5 0.5 0.5 0.5 0.5 0.743369 0.25663100000000005 0.980603 0.019396999999999998 0.821171 0.17882900000000002 0.904115 0.095885 0.0693579 0.9306421 0.842231 0.15776900000000005 0.485691 0.514309 0.198158 0.8018419999999999 0.5 0.5 0.5 0.5 0.5 0.5 0.5 0.5 0.5 0.5 0.5 0.5 0.5 0.5 0.5 0.5 0.157456 0.842544 0.966442 0.03355799999999998 0.954741 0.04525900000000005 0.419572 0.5804279999999999 0.0440807 0.9559193 0.765753 0.23424699999999998 0.517813 0.48218700000000003 0.462164 0.537836 0.3641 0.6359 0.205533 0.794467 0.951497 0.04850299999999996 0.185271 0.814729 0.5 0.5 0.5 0.5 0.5 0.5 0.5 0.5 0.5 0.5 0.5 0.5 0.317801 0.682199 0.890588 0.10941199999999995 0.319445 0.680555 0.919253 0.08074700000000001 0.5 0.5 0.5 0.5 0.5 0.5 0.5 0.5 0.613571 0.386429 0.123888 0.876112 0.23153 0.76847 0.454512 0.545488 0.5 0.5 0.5 0.5 0.5 0.5 0.5 0.5 0.5 0.5 0.5 0.5 0.5 0.5 0.5 0.5 0.776325 0.22367499999999996 0.897193 0.10280699999999998 0.283111 0.716889 0.229112 0.770888 0.5 0.5 0.5 0.5 0.5 0.5 0.5 0.5 0.5 0.5 0.5 0.5 0.5 0.5 0.5 0.5 0.932627 0.06737300000000002 0.626949 0.373051 0.982453 0.01754699999999998 0.164157 0.835843 0.5 0.5 0.5 0.5 0.5 0.5 0.5 0.5 0.5 0.5 0.5 0.5 0.5 0.5 0.5 0.5 0.5 0.5 0.5 0.5 0.5 0.5 0.5 0.5 0.734199 0.26580099999999995 0.294168 0.705832 0.464256 0.535744 0.900257 0.09974300000000003 0.5 0.5 0.5 0.5 0.5 0.5 0.5 0.5 0.5 0.5 0.5 0.5 0.247265 0.7527349999999999 0.147875 0.852125 0.988294 0.011705999999999994 0.397686 0.602314 0.5 0.5 0.5 0.5 0.5 0.5 0.5 0.5 0.5 0.5 0.5 0.5 0.5 0.5 0.5 0.5 0.587014 0.41298599999999996 0.949767 0.05023299999999997 0.548925 0.451075 0.881182 0.11881799999999998 0.5 0.5 0.5 0.5 0.5 0.5 0.5 0.5 0.5 0.5 0.5 0.5 0.5 0.5 0.5 0.5 0.516335 0.483665 0.527128 0.47287199999999996 0.890699 0.10930099999999998 0.914022 0.085978 0.932778 0.067222 0.0922629 0.9077371 0.275376 0.7246239999999999 0.365067 0.634933 0.763601 0.23639900000000003 0.709261 0.29073899999999997 0.242723 0.757277 0.159665 0.840335 0.5 0.5 0.5 0.5 0.5 0.5 0.5 0.5 0.5 0.5 0.5 0.5 0.5 0.5 0.5 0.5 0.230131 0.769869 0.845457 0.15454299999999999 0.766815 0.23318499999999998 0.499202 0.5007980000000001 0.5 0.5 0.5 0.5 0.5 0.5 0.5 0.5 0.5 0.5 0.5 0.5 0.5 0.5 0.5 0.5 0.5 0.5 0.5 0.5 0.5 0.5 0.5 0.5 0.5 0.5 0.5 0.5 0.5 0.5 0.5 0.5 0.5 0.5 0.5 0.5 0.5 0.5 0.5 0.5 0.5 0.5 0.5 0.5 0.5 0.5 0.5 0.5 0.5 0.5 0.5 0.5 0.5 0.5 0.5 0.5 0.5 0.5 0.5 0.5 0.130541 0.869459 0.0835875 0.9164125 0.829505 0.17049499999999995 0.988305 0.011695000000000011 0.456764 0.543236 0.55533 0.44467 0.143404 0.856596 0.243689 0.756311 0.352124 0.647876 0.777293 0.222707 0.864204 0.13579600000000003 0.167217 0.832783 0.969842 0.030158000000000018 0.0378653 0.9621347 0.326096 0.6739040000000001 0.525402 0.47459799999999996 0.5 0.5 0.5 0.5 0.5 0.5 0.5 0.5 0.5 0.5 0.5 0.5 0.5 0.5 0.5 0.5 0.5 0.5 0.5 0.5 0.337797 0.662203 0.725061 0.27493900000000004 0.92308 0.07691999999999999 0.329931 0.670069 0.5 0.5 0.5 0.5 0.5 0.5 0.5 0.5 0.5 0.5 0.5 0.5 0.5 0.5 0.5 0.5 0.5 0.5 0.5 0.5 0.5 0.5 0.5 0.5 0.47146 0.52854 0.180461 0.819539 0.96515 0.03485000000000005 0.663903 0.336097 0.5 0.5 0.5 0.5 0.5 0.5 0.5 0.5 0.5 0.5 0.5 0.5 0.5 0.5 0.5 0.5 0.5 0.5 0.5 0.5 0.5 0.5 0.5 0.5 0.5 0.5 0.5 0.5 0.5 0.5 0.5 0.5 0.5 0.5 0.5 0.5 0.5 0.5 0.5 0.5 0.5 0.5 0.5 0.5 0.5 0.5 0.5 0.5 0.5 0.5 0.5 0.5 0.5 0.5 0.5 0.5 0.188609 0.811391 0.482841 0.5171589999999999 0.456603 0.543397 0.10122 0.89878 0.5 0.5 0.5 0.5 0.5 0.5 0.5 0.5 0.5 0.5 0.5 0.5 0.5 0.5 0.5 0.5 0.5 0.5 0.5 0.5 0.3743 0.6256999999999999 0.217208 0.7827919999999999 0.220634 0.779366 0.407138 0.592862 0.5 0.5 0.5 0.5 0.5 0.5 0.5 0.5 0.5 0.5 0.5 0.5 0.5 0.5 0.5 0.5 0.5 0.5 0.5 0.5 0.5 0.5 0.5 0.5 0.5 0.5 0.5 0.5 0.5 0.5 0.5 0.5 0.931599 0.06840100000000005 0.425585 0.574415 0.654193 0.345807 0.987341 0.012658999999999976 0.5 0.5 0.5 0.5 0.5 0.5 0.5 0.5 0.5 0.5 0.5 0.5 0.5 0.5 0.5 0.5 0.5 0.5 0.5 0.5 0.5 0.5 0.5 0.5 0.660514 0.33948599999999995 0.190167 0.809833 0.455708 0.544292 0.858741 0.14125900000000002 0.417996 0.582004 0.0372439 0.9627561 0.316833 0.6831670000000001 0.658007 0.341993 0.248432 0.751568 0.0835921 0.9164079 0.5 0.5 0.5 0.5 0.5 0.5 0.5 0.5 0.996831 0.0031689999999999774 0.204007 0.795993 0.815479 0.18452100000000005 0.53634 0.46365999999999996 0.622252 0.377748 0.794581 0.20541900000000002 0.22289 0.77711 0.0387663 0.9612337 0.5 0.5 0.5 0.5 0.5 0.5 0.5 0.5 0.643776 0.356224 0.645856 0.354144 0.409854 0.5901460000000001 0.68102 0.31898000000000004 0.0678614 0.9321386 0.559535 0.440465 0.211121 0.788879 0.151453 0.8485469999999999 0.5 0.5 0.5 0.5 0.5 0.5 0.5 0.5 0.5 0.5 0.5 0.5 0.5 0.5 0.5 0.5 0.5 0.5 0.5 0.5 0.5 0.5 0.5 0.5 0.5 0.5 0.5 0.5 0.5 0.5 0.5 0.5 0.151522 0.8484780000000001 0.846368 0.153632 0.63544 0.36456 0.561376 0.438624 0.5 0.5 0.5 0.5 0.5 0.5 0.5 0.5 0.179166 0.8208340000000001 0.256146 0.743854 0.245045 0.754955 0.83261 0.16739000000000004
-1 -2 0
1 2 0
-2 3 0
2 -3 0
-3 -201 4 0
-3 201 -4 0
3 -202 4 0
3 202 -4 0
-4 -203 5 0
-4 203 -5 0
4 -204 5 0
4 204 -5 0
-5 -6 0
5 6 0
-6 -7 0
6 7 0
-7 -8 0
7 8 0
-8 -9 0
8 9 0
-9 -213 10 0
-9 213 -10 0
9 -214 10 0
9 214 -10 0
-10 11 0
10 -11 0
-11 -217 12 0
-11 217 -12 0
11 -218 12 0
11 218 -12 0
-12 13 0
12 -13 0
-13 14 0
13 -14 0
-1 -223 15 0
-1 223 -15 0
1 -224 15 0
1 224 -15 0
-15 -2 -225 16 0
-15 -2 225 -16 0
-15 2 -226 16 0
-15 2 226 -16 0
15 -2 -227 16 0
15 -2 227 -16 0
15 2 -228 16 0
15 2 228 -16 0
-16 -3 17 0
-16 3 -17 0
16 -3 17 0
16 3 17 0
-17 -4 18 0
-17 4 -18 0
17 -4 -18 0
17 4 -18 0
-18 -5 -19 0
-18 5 19 0
18 -5 -19 0
18 5 19 0
-19 -6 20 0
-19 6 20 0
19 -6 20 0
19 6 -20 0
-20 -7 21 0
-20 7 21 0
20 -7 -21 0
20 7 -21 0
-21 -8 -249 22 0
-21 -8 249 -22 0
-21 8 -250 22 0
-21 8 250 -22 0
21 -8 -251 22 0
21 -8 251 -22 0
21 8 -252 22 0
21 8 252 -22 0
-22 -9 23 0
-22 9 -23 0
22 -9 -23 0
22 9 -23 0
-23 -10 24 0
-23 10 -24 0
23 -10 -24 0
23 10 -24 0
-24 -11 -25 0
-24 11 -25 0
24 -11 25 0
24 11 -25 0
-25 -12 -265 26 0
-25 -12 265 -26 0
-25 12 -266 26 0
-25 12 266 -26 0
25 -12 -267 26 0
25 -12 267 -26 0
25 12 -268 26 0
25 12 268 -26 0
-26 -13 -269 27 0
-26 -13 269 -27 0
-26 13 -270 27 0
-26 13 270 -27 0
26 -13 -271 27 0
26 -13 271 -27 0
26 13 -272 27 0
26 13 272 -27 0
-27 -14 -28 0
-27 14 -28 0
27 -14 28 0
27 14 28 0
-15 29 0
15 -29 0
-29 -16 -30 0
-29 16 30 0
29 -16 30 0
29 16 30 0
-30 -17 -31 0
-30 17 31 0
30 -17 -31 0
30 17 -31 0
-31 -18 -287 32 0
-31 -18 287 -32 0
-31 18 -288 32 0
-31 18 288 -32 0
31 -18 -289 32 0
31 -18 289 -32 0
31 18 -290 32 0
31 18 290 -32 0
-32 -19 -33 0
-32 19 -33 0
32 -19 -33 0
32 19 33 0
-33 -20 34 0
-33 20 -34 0
33 -20 -34 0
33 20 34 0
-34 -21 35 0
-34 21 -35 0
34 -21 35 0
34 21 -35 0
-35 -22 -303 36 0
-35 -22 303 -36 0
-35 22 -304 36 0
-35 22 304 -36 0
35 -22 -305 36 0
35 -22 305 -36 0
35 22 -306 36 0
35 22 306 -36 0
-36 -23 37 0
-36 23 -37 0
36 -23 37 0
36 23 37 0
-37 -24 38 0
-37 24 38 0
37 -24 -38 0
37 24 -38 0
-38 -25 -39 0
-38 25 -39 0
38 -25 -39 0
38 25 39 0
-39 -26 -40 0
-39 26 -40 0
39 -26 40 0
39 26 -40 0
-40 -27 -323 41 0
-40 -27 323 -41 0
-40 27 -324 41 0
-40 27 324 -41 0
40 -27 -325 41 0
40 -27 325 -41 0
40 27 -326 41 0
40 27 326 -41 0
-41 -28 -42 0
-41 28 42 0
41 -28 -42 0
41 28 42 0
-29 -43 0
29 43 0
-43 -30 -333 44 0
-43 -30 333 -44 0
-43 30 -334 44 0
-43 30 334 -44 0
43 -30 -335 44 0
43 -30 335 -44 0
43 30 -336 44 0
43 30 336 -44 0
-44 -31 -45 0
-44 31 45 0
44 -31 -45 0
44 31 -45 0
-45 -32 46 0
-45 32 46 0
45 -32 46 0
45 32 -46 0
-46 -33 47 0
-46 33 -47 0
46 -33 -47 0
46 33 -47 0
-47 -34 48 0
-47 34 -48 0
47 -34 -48 0
47 34 48 0
-48 -35 -353 49 0
-48 -35 353 -49 0
-48 35 -354 49 0
-48 35 354 -49 0
48 -35 -355 49 0
48 -35 355 -49 0
48 35 -356 49 0
48 35 356 -49 0
-49 -36 -357 50 0
-49 -36 357 -50 0
-49 36 -358 50 0
-49 36 358 -50 0
49 -36 -359 50 0
49 -36 359 -50 0
49 36 -360 50 0
49 36 360 -50 0
-50 -37 51 0
-50 37 -51 0
50 -37 51 0
50 37 -51 0
-51 -38 -365 52 0
-51 -38 365 -52 0
-51 38 -366 52 0
-51 38 366 -52 0
51 -38 -367 52 0
51 -38 367 -52 0
51 38 -368 52 0
51 38 368 -52 0
-52 -39 -53 0
-52 39 53 0
52 -39 53 0
52 39 53 0
-53 -40 -373 54 0
-53 -40 373 -54 0
-53 40 -374 54 0
-53 40 374 -54 0
53 -40 -375 54 0
53 -40 375 -54 0
53 40 -376 54 0
53 40 376 -54 0
-54 -41 -55 0
-54 41 -55 0
54 -41 55 0
54 41 -55 0
-55 -42 56 0
-55 42 56 0
55 -42 -56 0
55 42 56 0
-43 -57 0
43 57 0
-57 -44 -58 0
-57 44 -58 0
57 -44 58 0
57 44 -58 0
-58 -45 59 0
-58 45 -59 0
58 -45 -59 0
58 45 -59 0
-59 -46 -60 0
-59 46 -60 0
59 -46 -60 0
59 46 60 0
-60 -47 -61 0
-60 47 -61 0
60 -47 61 0
60 47 61 0
-61 -48 62 0
-61 48 -62 0
61 -48 -62 0
61 48 62 0
-62 -49 63 0
-62 49 63 0
62 -49 63 0
62 49 -63 0
-63 -50 64 0
-63 50 -64 0
63 -50 64 0
63 50 -64 0
-64 -51 -65 0
-64 51 65 0
64 -51 65 0
64 51 65 0
-65 -52 66 0
-65 52 66 0
65 -52 -66 0
65 52 66 0
-66 -53 67 0
-66 53 67 0
66 -53 -67 0
66 53 -67 0
-67 -54 -68 0
-67 54 -68 0
67 -54 68 0
67 54 -68 0
-68 -55 69 0
-68 55 69 0
68 -55 -69 0
68 55 69 0
-69 -56 -70 0
-69 56 -70 0
69 -56 70 0
69 56 70 0
-57 -439 71 0
-57 439 -71 0
57 -440 71 0
57 440 -71 0
-71 -58 72 0
-71 58 72 0
71 -58 -72 0
71 58 -72 0
-72 -59 -445 73 0
-72 -59 445 -73 0
-72 59 -446 73 0
-72 59 446 -73 0
72 -59 -447 73 0
72 -59 447 -73 0
72 59 -448 73 0
72 59 448 -73 0
-73 -60 -74 0
-73 60 -74 0
73 -60 74 0
73 60 -74 0
-74 -61 -453 75 0
-74 -61 453 -75 0
-74 61 -454 75 0
-74 61 454 -75 0
74 -61 -455 75 0
74 -61 455 -75 0
74 61 -456 75 0
74 61 456 -75 0
-75 -62 -457 76 0
-75 -62 457 -76 0
-75 62 -458 76 0
-75 62 458 -76 0
75 -62 -459 76 0
75 -62 459 -76 0
75 62 -460 76 0
75 62 460 -76 0
-76 -63 77 0
-76 63 77 0
76 -63 77 0
76 63 -77 0
-77 -64 -465 78 0
-77 -64 465 -78 0
-77 64 -466 78 0
-77 64 466 -78 0
77 -64 -467 78 0
77 -64 467 -78 0
77 64 -468 78 0
77 64 468 -78 0
-78 -65 -79 0
-78 65 79 0
78 -65 -79 0
78 65 -79 0
-79 -66 -80 0
-79 66 -80 0
79 -66 80 0
79 66 -80 0
-80 -67 -477 81 0
-80 -67 477 -81 0
-80 67 -478 81 0
-80 67 478 -81 0
80 -67 -479 81 0
80 -67 479 -81 0
80 67 -480 81 0
80 67 480 -81 0
-81 -68 -481 82 0
-81 -68 481 -82 0
-81 68 -482 82 0
-81 68 482 -82 0
81 -68 -483 82 0
81 -68 483 -82 0
81 68 -484 82 0
81 68 484 -82 0
-82 -69 -83 0
-82 69 83 0
82 -69 83 0
82 69 -83 0
-83 -70 -489 84 0
-83 -70 489 -84 0
-83 70 -490 84 0
-83 70 490 -84 0
83 -70 -491 84 0
83 -70 491 -84 0
83 70 -492 84 0
83 70 492 -84 0
-71 -85 0
71 85 0
-85 -72 -86 0
-85 72 -86 0
85 -72 86 0
85 72 -86 0
-86 -73 87 0
-86 73 -87 0
86 -73 -87 0
86 73 87 0
-87 -74 -503 88 0
-87 -74 503 -88 0
-87 74 -504 88 0
-87 74 504 -88 0
87 -74 -505 88 0
87 -74 505 -88 0
87 74 -506 88 0
87 74 506 -88 0
-88 -75 -89 0
-88 75 -89 0
88 -75 89 0
88 75 -89 0
-89 -76 -511 90 0
-89 -76 511 -90 0
-89 76 -512 90 0
-89 76 512 -90 0
89 -76 -513 90 0
89 -76 513 -90 0
89 76 -514 90 0
89 76 514 -90 0
-90 -77 -515 91 0
-90 -77 515 -91 0
-90 77 -516 91 0
-90 77 516 -91 0
90 -77 -517 91 0
90 -77 517 -91 0
90 77 -518 91 0
90 77 518 -91 0
-91 -78 92 0
-91 78 -92 0
91 -78 -92 0
91 78 92 0
-92 -79 -93 0
-92 79 -93 0
92 -79 93 0
92 79 -93 0
-93 -80 94 0
-93 80 -94 0
93 -80 -94 0
93 80 94 0
-94 -81 95 0
-94 81 95 0
94 -81 95 0
94 81 -95 0
-95 -82 96 0
-95 82 -96 0
95 -82 96 0
95 82 -96 0
-96 -83 -97 0
-96 83 97 0
96 -83 -97 0
96 83 -97 0
-97 -84 -543 98 0
-97 -84 543 -98 0
-97 84 -544 98 0
-97 84 544 -98 0
97 -84 -545 98 0
97 -84 545 -98 0
97 84 -546 98 0
97 84 546 -98 0
-85 -99 0
85 99 0
-99 -86 100 0
-99 86 100 0
99 -86 -100 0
99 86 100 0
-100 -87 -553 101 0
-100 -87 553 -101 0
-100 87 -554 101 0
-100 87 554 -101 0
100 -87 -555 101 0
100 -87 555 -101 0
100 87 -556 101 0
100 87 556 -101 0
-101 -88 -557 102 0
-101 -88 557 -102 0
-101 88 -558 102 0
-101 88 558 -102 0
101 -88 -559 102 0
101 -88 559 -102 0
101 88 -560 102 0
101 88 560 -102 0
-102 -89 -103 0
-102 89 -103 0
102 -89 -103 0
102 89 103 0
-103 -90 104 0
-103 90 104 0
103 -90 104 0
103 90 -104 0
-104 -91 -569 105 0
-104 -91 569 -105 0
-104 91 -570 105 0
-104 91 570 -105 0
104 -91 -571 105 0
104 -91 571 -105 0
104 91 -572 105 0
104 91 572 -105 0
-105 -92 -573 106 0
-105 -92 573 -106 0
-105 92 -574 106 0
-105 92 574 -106 0
105 -92 -575 106 0
105 -92 575 -106 0
105 92 -576 106 0
105 92 576 -106 0
-106 -93 -107 0
-106 93 -107 0
106 -93 107 0
106 93 -107 0
-107 -94 -108 0
-107 94 108 0
107 -94 -108 0
107 94 -108 0
-108 -95 -585 109 0
-108 -95 585 -109 0
-108 95 -586 109 0
-108 95 586 -109 0
108 -95 -587 109 0
108 -95 587 -109 0
108 95 -588 109 0
108 95 588 -109 0
-109 -96 -589 110 0
-109 -96 589 -110 0
-109 96 -590 110 0
-109 96 590 -110 0
109 -96 -591 110 0
109 -96 591 -110 0
109 96 -592 110 0
109 96 592 -110 0
-110 -97 -593 111 0
-110 -97 593 -111 0
-110 97 -594 111 0
-110 97 594 -111 0
110 -97 -595 111 0
110 -97 595 -111 0
110 97 -596 111 0
110 97 596 -111 0
-111 -98 -112 0
-111 98 112 0
111 -98 -112 0
111 98 -112 0
-99 113 0
99 -113 0
-113 -100 -603 114 0
-113 -100 603 -114 0
-113 100 -604 114 0
-113 100 604 -114 0
113 -100 -605 114 0
113 -100 605 -114 0
113 100 -606 114 0
113 100 606 -114 0
-114 -101 -115 0
-114 101 -115 0
114 -101 115 0
114 101 -115 0
-115 -102 -611 116 0
-115 -102 611 -116 0
-115 102 -612 116 0
-115 102 612 -116 0
115 -102 -613 116 0
115 -102 613 -116 0
115 102 -614 116 0
115 102 614 -116 0
-116 -103 117 0
-116 103 117 0
116 -103 -117 0
116 103 -117 0
-117 -104 118 0
-117 104 -118 0
117 -104 118 0
117 104 118 0
-118 -105 -623 119 0
-118 -105 623 -119 0
-118 105 -624 119 0
-118 105 624 -119 0
118 -105 -625 119 0
118 -105 625 -119 0
118 105 -626 119 0
118 105 626 -119 0
-119 -106 120 0
-119 106 120 0
119 -106 -120 0
119 106 -120 0
-120 -107 121 0
-120 107 121 0
120 -107 121 0
120 107 -121 0
-121 -108 -635 122 0
-121 -108 635 -122 0
-121 108 -636 122 0
-121 108 636 -122 0
121 -108 -637 122 0
121 -108 637 -122 0
121 108 -638 122 0
121 108 638 -122 0
-122 -109 123 0
-122 109 -123 0
122 -109 123 0
122 109 123 0
-123 -110 -124 0
-123 110 -124 0
123 -110 -124 0
123 110 124 0
-124 -111 125 0
-124 111 125 0
124 -111 125 0
124 111 -125 0
-125 -112 -651 126 0
-125 -112 651 -126 0
-125 112 -652 126 0
-125 112 652 -126 0
125 -112 -653 126 0
125 -112 653 -126 0
125 112 -654 126 0
125 112 654 -126 0
-113 -127 0
113 127 0
-127 -114 128 0
-127 114 128 0
127 -114 -128 0
127 114 128 0
-128 -115 -661 129 0
-128 -115 661 -129 0
-128 115 -662 129 0
-128 115 662 -129 0
128 -115 -663 129 0
128 -115 663 -129 0
128 115 -664 129 0
128 115 664 -129 0
-129 -116 130 0
-129 116 130 0
129 -116 -130 0
129 116 130 0
-130 -117 131 0
-130 117 -131 0
130 -117 131 0
130 117 -131 0
-131 -118 -673 132 0
-131 -118 673 -132 0
-131 118 -674 132 0
-131 118 674 -132 0
131 -118 -675 132 0
131 -118 675 -132 0
131 118 -676 132 0
131 118 676 -132 0
-132 -119 -133 0
-132 119 -133 0
132 -119 133 0
132 119 133 0
-133 -120 -134 0
-133 120 134 0
133 -120 -134 0
133 120 -134 0
-134 -121 -685 135 0
-134 -121 685 -135 0
-134 121 -686 135 0
-134 121 686 -135 0
134 -121 -687 135 0
134 -121 687 -135 0
134 121 -688 135 0
134 121 688 -135 0
-135 -122 -689 136 0
-135 -122 689 -136 0
-135 122 -690 136 0
-135 122 690 -136 0
135 -122 -691 136 0
135 -122 691 -136 0
135 122 -692 136 0
135 122 692 -136 0
-136 -123 -693 137 0
-136 -123 693 -137 0
-136 123 -694 137 0
-136 123 694 -137 0
136 -123 -695 137 0
136 -123 695 -137 0
136 123 -696 137 0
136 123 696 -137 0
-137 -124 -138 0
-137 124 138 0
137 -124 -138 0
137 124 -138 0
-138 -125 -139 0
-138 125 -139 0
138 -125 139 0
138 125 139 0
-139 -126 -705 140 0
-139 -126 705 -140 0
-139 126 -706 140 0
-139 126 706 -140 0
139 -126 -707 140 0
139 -126 707 -140 0
139 126 -708 140 0
139 126 708 -140 0
-127 141 0
127 -141 0
-141 -128 -142 0
-141 128 142 0
141 -128 -142 0
141 128 -142 0
-142 -129 143 0
-142 129 -143 0
142 -129 -143 0
142 129 -143 0
-143 -130 -144 0
-143 130 144 0
143 -130 144 0
143 130 -144 0
-144 -131 -145 0
-144 131 -145 0
144 -131 145 0
144 131 145 0
-145 -132 146 0
-145 132 -146 0
145 -132 -146 0
145 132 146 0
-146 -133 -147 0
-146 133 147 0
146 -133 -147 0
146 133 -147 0
-147 -134 -148 0
-147 134 -148 0
147 -134 148 0
147 134 -148 0
-148 -135 -739 149 0
-148 -135 739 -149 0
-148 135 -740 149 0
-148 135 740 -149 0
148 -135 -741 149 0
148 -135 741 -149 0
148 135 -742 149 0
148 135 742 -149 0
-149 -136 -743 150 0
-149 -136 743 -150 0
-149 136 -744 150 0
-149 136 744 -150 0
149 -136 -745 150 0
149 -136 745 -150 0
149 136 -746 150 0
149 136 746 -150 0
-150 -137 -747 151 0
-150 -137 747 -151 0
-150 137 -748 151 0
-150 137 748 -151 0
150 -137 -749 151 0
150 -137 749 -151 0
150 137 -750 151 0
150 137 750 -151 0
-151 -138 -751 152 0
-151 -138 751 -152 0
-151 138 -752 152 0
-151 138 752 -152 0
151 -138 -753 152 0
151 -138 753 -152 0
151 138 -754 152 0
151 138 754 -152 0
-152 -139 -153 0
-152 139 153 0
152 -139 153 0
152 139 -153 0
-153 -140 -154 0
-153 140 154 0
153 -140 -154 0
153 140 154 0
-141 155 0
141 -155 0
-155 -142 -765 156 0
-155 -142 765 -156 0
-155 142 -766 156 0
-155 142 766 -156 0
155 -142 -767 156 0
155 -142 767 -156 0
155 142 -768 156 0
155 142 768 -156 0
-156 -143 157 0
-156 143 157 0
156 -143 157 0
156 143 -157 0
-157 -144 158 0
-157 144 -158 0
157 -144 158 0
157 144 -158 0
-158 -145 -159 0
-158 145 159 0
158 -145 159 0
158 145 159 0
-159 -146 -781 160 0
-159 -146 781 -160 0
-159 146 -782 160 0
-159 146 782 -160 0
159 -146 -783 160 0
159 -146 783 -160 0
159 146 -784 160 0
159 146 784 -160 0
-160 -147 -161 0
-160 147 -161 0
160 -147 161 0
160 147 161 0
-161 -148 162 0
-161 148 -162 0
161 -148 -162 0
161 148 162 0
-162 -149 163 0
-162 149 -163 0
162 -149 -163 0
162 149 -163 0
-163 -150 164 0
-163 150 -164 0
163 -150 -164 0
163 150 -164 0
-164 -151 -165 0
-164 151 165 0
164 -151 -165 0
164 151 -165 0
-165 -152 -166 0
-165 152 -166 0
165 -152 166 0
165 152 166 0
-166 -153 -167 0
-166 153 -167 0
166 -153 167 0
166 153 167 0
-167 -154 -813 168 0
-167 -154 813 -168 0
-167 154 -814 168 0
-167 154 814 -168 0
167 -154 -815 168 0
167 -154 815 -168 0
167 154 -816 168 0
167 154 816 -168 0
-155 -169 0
155 169 0
-169 -156 -170 0
-169 156 -170 0
169 -156 -170 0
169 156 170 0
-170 -157 -171 0
-170 157 171 0
170 -157 171 0
170 157 -171 0
-171 -158 -827 172 0
-171 -158 827 -172 0
-171 158 -828 172 0
-171 158 828 -172 0
171 -158 -829 172 0
171 -158 829 -172 0
171 158 -830 172 0
171 158 830 -172 0
-172 -159 -173 0
-172 159 173 0
172 -159 -173 0
172 159 -173 0
-173 -160 174 0
-173 160 -174 0
173 -160 174 0
173 160 -174 0
-174 -161 -175 0
-174 161 175 0
174 -161 175 0
174 161 175 0
-175 -162 176 0
-175 162 176 0
175 -162 -176 0
175 162 176 0
-176 -163 -847 177 0
-176 -163 847 -177 0
-176 163 -848 177 0
-176 163 848 -177 0
176 -163 -849 177 0
176 -163 849 -177 0
176 163 -850 177 0
176 163 850 -177 0
-177 -164 178 0
-177 164 -178 0
177 -164 178 0
177 164 178 0
-178 -165 179 0
-178 165 179 0
178 -165 -179 0
178 165 -179 0
-179 -166 -180 0
-179 166 180 0
179 -166 -180 0
179 166 -180 0
-180 -167 -863 181 0
-180 -167 863 -181 0
-180 167 -864 181 0
-180 167 864 -181 0
180 -167 -865 181 0
180 -167 865 -181 0
180 167 -866 181 0
180 167 866 -181 0
-181 -168 -867 182 0
-181 -168 867 -182 0
-181 168 -868 182 0
-181 168 868 -182 0
181 -168 -869 182 0
181 -168 869 -182 0
181 168 -870 182 0
181 168 870 -182 0
-169 -871 183 0
-169 871 -183 0
169 -872 183 0
169 872 -183 0
-183 -170 184 0
-183 170 -184 0
183 -170 -184 0
183 170 -184 0
-184 -171 -877 185 0
-184 -171 877 -185 0
-184 171 -878 185 0
-184 171 878 -185 0
184 -171 -879 185 0
184 -171 879 -185 0
184 171 -880 185 0
184 171 880 -185 0
-185 -172 -881 186 0
-185 -172 881 -186 0
-185 172 -882 186 0
-185 172 882 -186 0
185 -172 -883 186 0
185 -172 883 -186 0
185 172 -884 186 0
185 172 884 -186 0
-186 -173 -187 0
-186 173 187 0
186 -173 187 0
186 173 187 0
-187 -174 -889 188 0
-187 -174 889 -188 0
-187 174 -890 188 0
-187 174 890 -188 0
187 -174 -891 188 0
187 -174 891 -188 0
187 174 -892 188 0
187 174 892 -188 0
-188 -175 -893 189 0
-188 -175 893 -189 0
-188 175 -894 189 0
-188 175 894 -189 0
188 -175 -895 189 0
188 -175 895 -189 0
188 175 -896 189 0
188 175 896 -189 0
-189 -176 190 0
-189 176 -190 0
189 -176 190 0
189 176 -190 0
-190 -177 191 0
-190 177 191 0
190 -177 191 0
190 177 -191 0
-191 -178 -192 0
-191 178 192 0
191 -178 192 0
191 178 192 0
-192 -179 -193 0
-192 179 -193 0
192 -179 193 0
192 179 -193 0
-193 -180 -913 194 0
-193 -180 913 -194 0
-193 180 -914 194 0
-193 180 914 -194 0
193 -180 -915 194 0
193 -180 915 -194 0
193 180 -916 194 0
193 180 916 -194 0
-194 -181 -195 0
-194 181 195 0
194 -181 -195 0
194 181 -195 0
-195 -182 -921 196 0
-195 -182 921 -196 0
-195 182 -922 196 0
-195 182 922 -196 0
195 -182 -923 196 0
195 -182 923 -196 0
195 182 -924 196 0
195 182 924 -196 0
196 0
