data/benchmarks/bayes/75-14-9-q.gr
p tw 924 1257
108 585
177 190
8 9
40 41
77 517
109 586
135 687
41 42
111 595
73 74
87 503
74 75
5 204
106 107
149 743
88 504
158 828
125 651
7 21
107 108
150 744
187 891
8 251
152 753
40 54
101 558
128 661
73 87
104 569
173 174
129 662
16 227
105 570
106 120
175 894
139 153
180 865
81 477
118 624
172 186
121 635
1 224
173 187
159 783
122 635
36 303
98 543
113 114
168 867
135 690
49 358
171 878
25 266
146 147
50 359
32 45
87 506
52 368
176 849
179 180
65 78
61 453
123 693
180 181
90 516
98 111
80 93
113 127
91 517
128 664
155 767
131 144
137 749
104 572
146 160
32 287
102 611
164 177
131 674
179 193
193 914
21 250
83 490
172 827
10 11
92 575
30 334
110 592
121 638
22 250
43 44
68 482
95 585
35 305
38 51
148 740
76 77
27 41
100 556
189 893
60 74
136 743
105 118
15 224
112 651
174 891
61 456
138 151
88 559
171 184
2 226
182 867
64 466
31 289
126 706
16 17
40 374
67 477
32 290
102 614
160 784
49 50
185 877
105 625
75 453
167 865
50 51
82 83
137 693
72 447
83 84
48 355
115 116
34 48
57 440
110 595
84 543
16 30
116 117
177 850
67 81
116 611
51 365
167 168
49 63
149 150
100 114
122 690
36 358
82 96
12 266
133 147
74 506
115 129
44 334
166 180
194 916
106 574
167 181
82 482
77 516
109 585
184 880
91 572
88 503
67 480
158 827
7 20
150 743
187 890
8 250
8 21
40 53
188 891
75 456
101 557
41 54
73 86
102 558
129 661
16 226
172 882
139 705
78 466
74 87
105 569
84 546
175 893
115 613
140 706
22 305
54 374
107 120
51 368
180 864
118 623
140 153
119 624
1 223
173 186
174 187
71 440
18 19
108 587
135 689
136 690
50 358
87 505
3 17
103 104
182 922
149 745
85 86
176 848
9 213
88 506
158 830
36 50
125 653
136 137
26 265
118 119
69 83
169 170
91 516
151 152
101 560
128 663
102 116
137 748
104 571
146 159
129 664
103 117
135 149
105 572
175 896
179 192
193 913
80 478
136 150
168 182
180 193
81 479
118 626
169 183
92 574
25 26
84 490
154 814
121 637
22 249
68 481
35 304
9 23
97 544
36 305
135 692
49 360
10 23
171 880
25 268
15 223
176 177
174 890
61 455
76 89
109 123
123 695
90 518
191 192
142 156
126 705
175 189
32 289
102 613
176 190
196 922
131 676
6 7
193 916
167 864
21 252
83 492
39 40
172 829
30 336
57 439
110 594
72 73
22 252
16 29
5 19
95 587
148 742
17 30
49 62
151 747
6 20
122 689
50 63
82 95
39 53
83 96
74 505
115 128
136 745
72 86
116 129
106 573
112 653
168 813
82 481
149 162
12 13
2 228
182 195
184 879
64 468
91 571
13 14
45 46
40 376
67 479
46 47
78 79
185 879
79 80
11 25
75 455
188 890
137 695
12 26
44 58
102 557
172 881
113 603
78 465
84 545
45 59
145 146
140 705
22 304
54 373
116 613
51 367
78 92
178 179
122 692
111 125
36 360
119 623
12 268
112 126
181 863
144 158
13 269
44 336
71 439
145 159
177 191
77 518
109 587
178 192
171 827
136 689
182 921
88 505
158 829
125 652
150 745
18 31
187 892
8 252
188 893
101 559
184 185
126 652
52 65
102 560
129 663
16 228
172 884
139 707
103 116
78 468
105 571
175 895
87 553
54 376
136 149
118 131
180 866
81 478
118 625
151 164
119 626
159 784
15 16
47 48
122 636
36 304
48 49
80 81
98 544
168 868
135 691
81 82
25 38
136 692
50 360
59 445
14 28
114 115
182 924
176 850
26 267
47 61
147 148
123 694
80 94
91 518
100 603
137 750
181 182
176 189
105 574
196 921
131 675
158 171
43 333
193 915
80 480
21 22
147 161
83 491
172 828
92 576
54 55
30 335
84 492
154 816
22 251
87 88
68 483
148 741
35 306
88 89
97 546
120 121
6 19
21 35
121 122
189 894
153 154
39 52
54 68
72 85
105 119
15 225
87 101
187 188
77 465
174 892
53 373
120 134
153 167
182 868
64 467
126 707
40 375
185 878
196 924
167 866
137 694
72 448
4 201
12 25
48 356
1 15
110 596
13 26
46 59
151 749
79 92
122 691
112 125
44 335
145 158
106 575
168 815
82 483
178 191
23 24
24 25
57 58
89 90
185 881
8 22
188 892
75 457
90 91
126 651
41 55
141 142
102 559
23 37
172 883
113 605
123 124
139 706
78 467
74 88
174 175
115 614
56 70
140 707
22 306
156 157
54 375
107 121
89 103
189 190
140 154
119 625
141 155
181 865
174 188
108 588
142 766
109 589
63 64
136 691
118 673
14 27
182 923
149 746
9 214
125 654
26 266
47 60
150 747
130 131
48 61
163 164
126 654
81 94
114 127
105 573
167 813
80 479
147 160
180 194
81 480
148 161
84 491
154 815
181 194
97 545
122 638
36 306
77 78
18 288
21 34
98 546
168 870
10 24
74 454
110 111
54 67
43 57
143 144
59 447
87 100
76 90
26 269
88 101
120 133
123 696
62 457
77 91
121 134
153 166
38 365
100 605
110 124
154 167
17 18
143 157
196 923
43 335
172 830
95 588
17 31
117 118
151 748
96 589
50 64
150 151
189 896
12 217
83 97
183 184
165 166
136 746
84 98
15 227
116 130
112 654
77 467
168 814
117 131
149 163
150 164
182 196
182 870
134 686
185 880
186 881
137 696
146 781
23 36
113 604
24 37
56 69
89 511
116 614
89 102
151 751
90 103
163 847
181 864
123 136
13 270
156 169
115 662
142 765
19 20
109 588
171 828
20 21
52 53
180 913
53 54
150 746
86 87
18 32
19 33
108 636
119 120
188 894
75 459
10 213
63 76
126 653
52 66
152 153
139 708
85 99
185 186
87 554
186 187
118 132
130 143
119 133
151 165
163 176
152 166
181 867
59 60
122 637
18 287
98 545
142 768
168 869
109 591
92 93
74 453
25 39
136 693
125 126
59 446
158 159
121 686
26 268
26 39
150 749
59 73
159 160
35 353
77 90
27 269
97 593
92 106
192 193
100 604
40 324
110 123
125 139
143 156
138 752
105 575
76 511
158 172
43 334
167 815
81 482
22 23
68 484
55 56
189 895
101 553
74 456
84 97
15 226
77 466
117 130
53 374
62 459
150 163
38 367
132 145
182 869
126 708
165 178
134 685
73 445
29 30
61 62
4 202
135 685
49 353
62 63
111 593
94 95
13 27
95 96
127 128
46 60
114 603
28 42
151 750
128 129
160 161
11 218
90 511
96 591
79 93
152 751
61 75
161 162
94 108
194 195
106 576
127 141
115 661
168 816
82 484
160 174
27 324
134 688
185 882
19 32
108 635
75 458
134 135
20 33
146 783
113 606
53 66
76 458
140 708
52 366
89 513
86 99
119 132
134 148
163 849
152 165
181 866
13 272
115 664
142 767
195 922
109 590
30 31
171 830
31 32
180 915
118 674
110 590
64 65
121 685
15 29
70 490
150 748
59 72
97 98
48 62
148 149
92 105
188 896
30 44
40 323
81 95
135 740
125 138
41 324
138 751
114 128
87 556
167 814
159 172
81 481
148 162
4 5
181 195
181 869
37 38
160 782
18 289
74 455
169 872
136 695
22 35
59 448
155 156
121 688
137 138
177 848
55 68
26 270
88 102
188 189
35 355
170 171
62 458
27 271
97 595
121 135
38 366
100 606
40 326
156 766
154 168
132 674
122 135
138 754
155 169
76 513
43 336
81 484
51 52
149 740
28 41
11 217
96 590
61 74
12 218
101 555
62 75
94 107
51 65
15 228
95 108
77 468
128 141
53 376
160 173
27 323
161 174
183 872
134 687
58 59
186 882
73 447
4 204
49 355
91 92
146 782
76 457
24 38
124 125
52 365
89 512
114 605
57 71
157 158
151 752
139 140
90 513
58 72
90 104
190 191
134 147
163 848
172 173
91 105
123 137
13 271
124 138
156 170
115 663
195 921
157 171
171 829
180 914
27 326
110 589
70 489
185 884
108 637
188 895
75 460
10 214
30 43
63 77
100 553
135 739
31 44
41 323
76 460
64 77
87 555
97 110
130 144
163 177
181 868
26 27
160 781
27 28
195 924
109 592
60 61
169 871
136 694
4 17
3 201
118 676
93 94
37 50
121 687
177 847
70 492
26 40
150 750
70 83
35 354
27 270
97 594
40 325
156 765
135 742
104 117
74 503
41 326
132 673
138 753
105 576
93 107
193 194
194 913
76 512
137 150
167 816
126 140
170 183
81 483
33 34
184 877
91 569
34 35
66 67
149 739
67 68
99 100
100 101
132 133
101 554
33 47
133 134
51 64
66 80
166 167
26 272
53 375
99 113
62 460
38 368
132 146
156 768
183 871
165 179
132 676
73 446
4 203
135 686
49 354
111 594
5 203
149 742
114 604
90 512
96 592
58 71
152 752
91 104
124 137
106 119
157 170
139 152
2 3
27 325
172 185
3 4
35 36
159 782
36 37
185 883
68 69
186 884
69 70
101 102
20 34
49 357
146 784
2 16
102 103
171 877
25 265
53 67
76 459
35 49
135 136
52 367
89 514
86 100
68 82
151 754
90 515
101 115
163 850
155 766
9 10
131 673
195 923
21 249
83 489
180 916
75 76
118 675
30 333
110 591
108 109
70 491
148 739
109 110
27 40
42 56
100 555
142 143
60 73
135 741
75 89
41 325
175 176
93 106
108 122
126 139
159 173
88 558
2 225
64 465
31 288
181 870
40 373
5 6
160 783
105 624
18 290
72 446
33 46
136 696
48 354
22 36
122 123
34 47
66 79
177 849
55 69
26 271
67 80
35 356
27 272
97 596
100 113
36 357
12 265
156 767
133 146
132 675
122 136
44 333
166 179
194 915
76 514
167 180
77 515
11 12
44 45
149 741
96 97
187 889
8 249
29 43
129 130
111 112
101 556
62 76
162 163
144 145
16 225
95 109
195 196
115 612
177 178
96 110
128 142
180 863
129 143
161 175
162 176
159 781
108 586
186 883
73 448
135 688
49 356
2 15
111 596
50 357
87 504
3 16
35 48
149 744
176 847
114 606
36 49
68 81
151 753
90 514
69 82
152 754
101 114
91 515
128 662
155 765
102 115
137 747
104 570
135 148
80 477
168 181
92 573
84 489
154 813
32 33
121 636
65 66
35 303
9 22
97 543
108 638
42 55
100 554
49 359
31 45
131 132
75 88
171 879
25 267
32 46
64 78
164 165
108 121
65 79
174 889
61 454
97 111
88 557
109 122
90 517
98 112
142 155
31 287
155 768
131 145
175 188
32 288
102 612
38 39
164 178
105 623
71 72
167 863
21 251
72 445
4 18
3 202
104 105
48 353
110 593
105 106
37 51
5 18
95 586
38 52
138 139
70 84
71 85
171 172
104 118
74 504
136 744
194 914
137 151
112 652
138 152
88 560
170 184
171 185
2 227
184 878
1 2
91 570
31 290
67 478
105 626
11 24
75 454
188 889
44 57
84 544
45 58
115 611
22 303
96 109
116 612
51 366
78 91
129 142
111 124
36 359
162 175
12 267
144 157
7 8
